p cnf 12 50 
1 -7 -8 0
-6 -11 -3 0
1 -12 7 0
10 5 1 0
12 -7 -9 0
-3 -4 9 0
-6 -5 8 0
10 -5 1 0
-6 1 -4 0
-12 -8 -2 0
-11 -10 -6 0
5 12 -8 0
-5 2 6 0
-9 7 12 0
6 8 -9 0
8 11 1 0
5 -3 -8 0
5 -12 -8 0
-10 12 9 0
-7 2 -11 0
-12 6 7 0
6 -4 -3 0
12 -9 -3 0
-4 1 2 0
5 -4 -7 0
-12 11 5 0
-10 -5 -11 0
-9 5 8 0
-11 3 4 0
1 -7 -2 0
6 -10 1 0
6 -1 -10 0
-5 -10 11 0
1 11 9 0
12 -2 6 0
11 -1 2 0
4 10 3 0
-12 2 -10 0
-2 -10 11 0
7 1 12 0
-12 4 10 0
-5 -11 -10 0
-3 12 -6 0
6 12 5 0
11 -3 -4 0
8 10 -4 0
-4 -7 1 0
5 4 6 0
2 12 -9 0
9 -8 -11 0
